Minimize

  y_0

Subject To


   a0: x$_0 = 1 -> y_0 - y_1 >= 1
   a1: x$_1 = 1 -> y_1 - y_0 >= 1
   a2: x$_0 + x$_1 = 1
   a3: x$_2 = 1 -> y_0 - y_2 >= 1
   a4: x$_3 = 1 -> y_2 - y_0 >= 1
   a5: x$_2 + x$_3 = 1
   a6: x$_4 = 1 -> y_1 - y_2 >= 1
   a7: x$_5 = 1 -> y_2 - y_1 >= 1
   a8: x$_4 + x$_5 = 1

   b0: y_0 - d2_0 = 0
   b1: y_1 - d2_1 = -1
   b2: y_2 - d2_2 = -2

   c0: x$_6 = 1 -> d2_0 - d2_1 >= 1
   c1: x$_7 = 1 -> d2_1 - d2_0 >= 1
   c2: x$_6 + x$_7 = 1
   c3: x$_8 = 1 -> d2_0 - d2_2 >= 1
   c4: x$_9 = 1 -> d2_2 - d2_0 >= 1
   c5: x$_8 + x$_9 = 1
   c6: x$_10 = 1 -> d2_1 - d2_2 >= 1
   c7: x$_11 = 1 -> d2_2 - d2_1 >= 1
   c8: x$_10 + x$_11 = 1

   d0: y_0 - d1_0 = 0
   d1: y_1 - d1_1 = 1
   d2: y_2 - d1_2 = 2

   e0: x$_12 = 1 -> d1_0 - d1_1 >= 1
   e1: x$_13 = 1 -> d1_1 - d1_0 >= 1
   e2: x$_12 + x$_13 = 1
   e3: x$_14 = 1 -> d1_0 - d1_2 >= 1
   e4: x$_15 = 1 -> d1_2 - d1_0 >= 1
   e5: x$_14 + x$_15 = 1
   e6: x$_16 = 1 -> d1_1 - d1_2 >= 1
   e7: x$_17 = 1 -> d1_2 - d1_1 >= 1
   e8: x$_16 + x$_17 = 1

Bounds

   d1_0 >= -1000000
   d1_1 >= -1000000
   d1_2 >= -1000000
   y_0 <= 2
   y_1 <= 2
   y_2 <= 2

Binary

x$_0 x$_1 x$_2 x$_3 x$_4 x$_5 x$_6 x$_7 x$_8 x$_9 x$_10 x$_11 x$_12 x$_13 x$_14 x$_15 x$_16 x$_17
General

y_0 y_1 y_2 d1_0 d1_1 d1_2 d2_0 d2_1 d2_2

End


